La1 Pd1 O2
1.0
   6.1738650148329111   -1.8902499999999991    0.0000000000000000
   6.1738650148329111    1.8902499999999991    0.0000000000000000
   5.5951278617018270    0.0000000000000000    3.2224522486897640
La Pd O
1 1 2
direct
   0.0000000000000000    0.0000000000000000    0.0000000000000000 La
   0.4999999999999999    0.4999999999999996    0.4999999999999999 Pd
   0.6099000000000001    0.6099000000000001    0.6099000000000001 O
   0.3900999999999998    0.3901000000000001    0.3900999999999999 O
